% seed = 0

mint = 18;
% maxt = 72;

nActs = 27;
dur = [0,4,2,3,2,3,1,5,4,5,3,4,1,1,1,2,5,5,1,3,3,4,1,5,3,1,0];

nSkills = 8;
sreq = [| 0,0,0,0,0,0,0,0,
	| 1,1,0,1,2,0,0,0,
	| 0,1,0,0,2,0,0,1,
	| 4,0,0,0,1,0,0,0,
	| 2,1,0,0,0,1,0,0,
	| 1,1,0,1,1,0,1,0,
	| 0,1,0,1,0,0,1,0,
	| 1,1,0,0,0,0,0,3,
	| 3,0,0,0,0,0,0,0,
	| 1,1,0,1,0,2,0,0,
	| 1,0,2,0,0,0,0,0,
	| 2,1,0,0,1,0,1,0,
	| 3,0,0,0,0,0,0,0,
	| 1,1,1,0,0,0,1,0,
	| 1,1,1,0,0,0,0,0,
	| 2,1,0,0,0,1,0,0,
	| 2,1,0,0,0,0,0,0,
	| 1,2,0,0,0,0,0,1,
	| 0,2,0,1,0,0,0,0,
	| 1,2,0,0,1,0,0,0,
	| 1,2,0,0,1,0,0,1,
	| 2,2,0,0,0,0,0,0,
	| 0,2,0,1,1,1,0,0,
	| 1,2,0,1,0,0,0,0,
	| 1,2,1,0,0,0,1,0,
	| 2,1,1,0,0,0,0,0,
	| 0,0,0,0,0,0,0,0, |];

% SumOfsreq = 102;

nResources = 10;
mastery = [| false,false,true,false,false,true,false,true,
	| false,false,true,false,true,true,true,false,
	| false,false,false,false,true,false,true,true,
	| true,true,true,false,false,false,true,false,
	| true,true,false,false,false,false,true,false,
	| false,false,false,true,false,true,true,true,
	| false,false,false,false,true,false,false,true,
	| false,true,true,false,false,false,true,true,
	| true,true,false,false,false,false,false,false,
	| true,false,false,true,false,true,true,false, |];

nPrecs = 89;
pred = [1,1,1,1,1,1,1,1,1,1,1,1,1,1,1,1,1,1,1,1,1,1,1,1,1,2,2,2,2,3,3,3,3,4,4,5,5,5,5,5,5,6,6,6,6,6,6,6,6,6,7,7,8,8,8,9,9,9,9,9,10,10,11,11,12,13,13,13,14,14,14,14,15,15,16,17,18,18,19,19,19,20,20,21,22,23,24,25,26];
succ = [2,3,4,5,6,7,8,9,10,11,12,13,14,15,16,17,18,19,20,21,22,23,24,25,26,27,5,22,24,27,13,22,24,18,27,7,8,15,20,26,27,9,14,17,18,19,21,22,23,27,27,15,19,21,27,17,25,19,27,14,26,27,27,16,27,27,14,23,27,22,15,16,18,27,27,27,27,22,27,23,24,25,27,27,27,27,27,27,27];

nUnrels = 218;
unpred = [2,2,2,2,2,2,2,2,2,2,2,3,3,3,3,3,3,3,3,3,3,3,3,3,3,3,4,4,4,4,4,4,4,4,4,4,4,4,4,4,4,4,4,4,4,4,5,5,5,5,5,5,5,5,5,6,6,6,6,6,6,6,6,7,7,7,7,7,7,7,7,7,7,7,7,7,7,7,7,8,8,8,8,8,8,8,8,8,8,8,8,8,8,9,9,9,9,9,9,9,10,10,10,10,10,10,10,10,10,10,10,10,10,10,10,11,11,11,11,11,11,11,11,11,11,11,11,11,11,12,12,12,12,12,12,12,12,12,12,12,12,12,12,13,13,13,13,13,13,13,14,14,14,14,14,14,14,14,15,15,15,15,15,15,15,15,15,16,16,16,16,16,16,16,16,16,16,17,17,17,17,17,17,17,17,17,18,18,18,18,18,18,18,19,19,19,19,19,20,20,20,20,20,21,21,21,21,21,22,22,22,22,23,23,23,24,24,25];
unsucc = [3,4,6,9,10,11,12,13,14,16,17,4,5,6,7,8,9,10,11,12,17,19,20,21,25,26,5,6,7,8,9,10,11,12,13,14,15,16,17,19,20,21,23,24,25,26,6,9,10,11,12,13,14,16,17,7,8,10,11,12,13,20,26,8,9,10,11,12,13,14,16,17,19,20,21,23,24,25,26,9,10,11,12,13,14,15,16,17,18,20,22,25,26,10,11,12,13,20,21,26,11,12,13,14,15,16,17,18,19,20,21,22,23,24,25,12,13,14,15,17,18,19,20,21,22,23,24,25,26,13,14,15,16,17,18,19,20,21,22,23,24,25,26,17,19,20,21,24,25,26,17,19,20,21,23,24,25,26,16,17,19,20,21,23,24,25,26,17,18,19,20,21,22,23,24,25,26,18,19,20,21,22,23,24,25,26,19,20,21,23,24,25,26,20,21,22,25,26,21,22,23,24,26,22,23,24,25,26,23,24,25,26,24,25,26,25,26,26];

USEFUL_RES = [{},
	{2,3,4,5,6,7,8,9,10},
	{1,2,3,4,5,6,7,8,9},
	{2,3,4,5,7,9,10},
	{1,2,4,5,6,8,9,10},
	{2,3,4,5,6,7,8,9,10},
	{2,3,4,5,6,8,9,10},
	{1,3,4,5,6,7,8,9,10},
	{4,5,9,10},
	{1,2,4,5,6,8,9,10},
	{1,2,4,5,8,9,10},
	{2,3,4,5,6,7,8,9,10},
	{4,5,9,10},
	{1,2,3,4,5,6,8,9,10},
	{1,2,4,5,8,9,10},
	{1,2,4,5,6,8,9,10},
	{4,5,8,9,10},
	{1,3,4,5,6,7,8,9,10},
	{4,5,6,8,9,10},
	{2,3,4,5,7,8,9,10},
	{1,2,3,4,5,6,7,8,9,10},
	{4,5,8,9,10},
	{1,2,3,4,5,6,7,8,9,10},
	{4,5,6,8,9,10},
	{1,2,3,4,5,6,8,9,10},
	{1,2,4,5,8,9,10},
	{}];

POTENTIAL_ACT = [{3,5,8,10,11,14,15,16,18,21,23,25,26},
	{2,3,4,5,6,7,10,11,12,14,15,16,20,21,23,25,26},
	{2,3,4,6,7,8,12,14,18,20,21,23,25},
	{2,3,4,5,6,7,8,9,10,11,12,13,14,15,16,17,18,19,20,21,22,23,24,25,26},
	{2,3,4,5,6,7,8,9,10,11,12,13,14,15,16,17,18,19,20,21,22,23,24,25,26},
	{2,3,5,6,7,8,10,12,14,16,18,19,21,23,24,25},
	{2,3,4,6,8,12,18,20,21,23},
	{2,3,5,6,7,8,10,11,12,14,15,16,17,18,19,20,21,22,23,24,25,26},
	{2,3,4,5,6,7,8,9,10,11,12,13,14,15,16,17,18,19,20,21,22,23,24,25,26},
	{2,4,5,6,7,8,9,10,11,12,13,14,15,16,17,18,19,20,21,22,23,24,25,26}];
